
n_res = 8;
rcap = [67, 60, 52, 62, 686, 713, 620, 710];
rtype = [1, 1, 1, 1, 2, 2, 2, 2];
n_tasks = 50;
modes =  [{1, 2, 3, 4, 5, 6, 7, 8, 9}, {10, 11, 12, 13, 14, 15, 16, 17, 18}, {19, 20, 21, 22, 23, 24, 25, 26, 27}, {28, 29, 30, 31, 32, 33, 34, 35, 36}, {37, 38, 39, 40, 41, 42, 43, 44, 45}, {46, 47, 48, 49, 50, 51, 52, 53, 54}, {55, 56, 57, 58, 59, 60, 61, 62, 63}, {64, 65, 66, 67, 68, 69, 70, 71, 72}, {73, 74, 75, 76, 77, 78, 79, 80, 81}, {82, 83, 84, 85, 86, 87, 88, 89, 90}, {91, 92, 93, 94, 95, 96, 97, 98, 99}, {100, 101, 102, 103, 104, 105, 106, 107, 108}, {109, 110, 111, 112, 113, 114, 115, 116, 117}, {118, 119, 120, 121, 122, 123, 124, 125, 126}, {127, 128, 129, 130, 131, 132, 133, 134, 135}, {136, 137, 138, 139, 140, 141, 142, 143, 144}, {145, 146, 147, 148, 149, 150, 151, 152, 153}, {154, 155, 156, 157, 158, 159, 160, 161, 162}, {163, 164, 165, 166, 167, 168, 169, 170, 171}, {172, 173, 174, 175, 176, 177, 178, 179, 180}, {181, 182, 183, 184, 185, 186, 187, 188, 189}, {190, 191, 192, 193, 194, 195, 196, 197, 198}, {199, 200, 201, 202, 203, 204, 205, 206, 207}, {208, 209, 210, 211, 212, 213, 214, 215, 216}, {217, 218, 219, 220, 221, 222, 223, 224, 225}, {226, 227, 228, 229, 230, 231, 232, 233, 234}, {235, 236, 237, 238, 239, 240, 241, 242, 243}, {244, 245, 246, 247, 248, 249, 250, 251, 252}, {253, 254, 255, 256, 257, 258, 259, 260, 261}, {262, 263, 264, 265, 266, 267, 268, 269, 270}, {271, 272, 273, 274, 275, 276, 277, 278, 279}, {280, 281, 282, 283, 284, 285, 286, 287, 288}, {289, 290, 291, 292, 293, 294, 295, 296, 297}, {298, 299, 300, 301, 302, 303, 304, 305, 306}, {307, 308, 309, 310, 311, 312, 313, 314, 315}, {316, 317, 318, 319, 320, 321, 322, 323, 324}, {325, 326, 327, 328, 329, 330, 331, 332, 333}, {334, 335, 336, 337, 338, 339, 340, 341, 342}, {343, 344, 345, 346, 347, 348, 349, 350, 351}, {352, 353, 354, 355, 356, 357, 358, 359, 360}, {361, 362, 363, 364, 365, 366, 367, 368, 369}, {370, 371, 372, 373, 374, 375, 376, 377, 378}, {379, 380, 381, 382, 383, 384, 385, 386, 387}, {388, 389, 390, 391, 392, 393, 394, 395, 396}, {397, 398, 399, 400, 401, 402, 403, 404, 405}, {406, 407, 408, 409, 410, 411, 412, 413, 414}, {415, 416, 417, 418, 419, 420, 421, 422, 423}, {424, 425, 426, 427, 428, 429, 430, 431, 432}, {433, 434, 435, 436, 437, 438, 439, 440, 441}, {442, 443, 444, 445, 446, 447, 448, 449, 450}];
succ =  [{18, 9, 7, 6}, {18, 9, 7, 6}, {18, 9, 7, 6}, {18, 17, 14, 13, 10, 7}, {18, 17, 13, 11, 9}, {20, 17, 15, 14, 13, 12, 11}, {20, 15, 12, 11}, {9}, {19, 16, 15, 14}, {19, 16, 15}, {27, 25, 21, 19}, {27, 25, 21, 19}, {27, 26, 25, 24, 23, 21}, {26, 25, 23, 21}, {26, 25, 21}, {27, 25, 21}, {25, 23, 21}, {28, 26, 25, 22}, {26, 24, 23}, {32, 31, 30, 29, 28, 27, 25}, {28, 22}, {33, 32, 31, 30, 29}, {31, 30, 28}, {44, 34, 31, 30, 29}, {44, 43, 39, 38, 37, 36, 34}, {44, 38, 32, 31}, {44, 43, 39, 37, 36, 34}, {43, 36, 34, 33}, {43, 41, 38, 36, 35}, {39, 38, 37, 35}, {49, 43, 39, 35}, {39, 34}, {50, 48, 44, 41, 38}, {49, 35}, {50, 47, 42, 40}, {50, 48, 47, 46, 45}, {49, 48, 47, 46, 45}, {49, 47, 40}, {46, 41}, {46, 45}, {47, 45}, {48}, {46}, {45}, {}, {}, {}, {}, {}, {}];
n_opt = 450;
dur = [2, 4, 8, 13, 16, 17, 18, 21, 27, 4, 5, 7, 14, 19, 27, 28, 29, 30, 4, 5, 10, 21, 23, 27, 28, 29, 30, 1, 2, 11, 12, 13, 27, 28, 29, 30, 6, 10, 16, 17, 18, 19, 20, 21, 24, 7, 10, 11, 13, 14, 17, 19, 20, 21, 5, 6, 14, 19, 20, 21, 23, 24, 28, 3, 8, 9, 11, 18, 19, 23, 27, 29, 1, 2, 4, 10, 15, 21, 22, 28, 29, 2, 3, 4, 6, 15, 17, 19, 20, 22, 3, 5, 6, 7, 11, 18, 19, 26, 27, 11, 18, 23, 25, 26, 27, 28, 29, 30, 4, 6, 7, 12, 13, 14, 17, 20, 28, 8, 9, 13, 14, 15, 27, 28, 29, 30, 3, 5, 7, 8, 11, 15, 24, 27, 28, 3, 5, 13, 15, 16, 21, 26, 27, 28, 7, 8, 9, 10, 11, 13, 14, 18, 28, 7, 8, 20, 22, 26, 27, 28, 29, 30, 5, 6, 13, 20, 21, 24, 26, 28, 29, 3, 6, 7, 8, 12, 15, 18, 20, 25, 4, 7, 8, 10, 13, 14, 22, 23, 29, 2, 4, 6, 12, 15, 18, 24, 25, 28, 1, 2, 3, 4, 6, 16, 17, 22, 30, 2, 5, 6, 9, 14, 17, 21, 24, 27, 2, 6, 8, 12, 20, 21, 25, 27, 30, 2, 10, 11, 14, 21, 25, 26, 29, 30, 6, 9, 10, 13, 14, 15, 16, 27, 28, 1, 3, 6, 8, 9, 11, 13, 18, 28, 1, 4, 11, 14, 15, 16, 17, 18, 25, 2, 13, 15, 17, 20, 22, 23, 25, 27, 4, 5, 6, 7, 16, 17, 21, 26, 29, 2, 10, 16, 17, 18, 20, 28, 29, 30, 4, 6, 12, 18, 19, 20, 21, 23, 28, 2, 5, 18, 22, 25, 26, 28, 29, 30, 1, 12, 13, 14, 18, 19, 20, 23, 29, 8, 18, 19, 20, 21, 22, 24, 25, 26, 1, 6, 10, 15, 18, 23, 24, 25, 26, 1, 6, 8, 9, 13, 15, 17, 18, 26, 1, 7, 12, 13, 15, 16, 18, 20, 25, 1, 2, 6, 11, 13, 15, 22, 27, 28, 1, 6, 7, 8, 11, 12, 13, 18, 26, 4, 15, 16, 17, 18, 19, 20, 21, 22, 3, 11, 12, 13, 14, 16, 18, 21, 29, 1, 3, 4, 10, 15, 19, 22, 27, 28, 1, 13, 14, 18, 19, 24, 28, 29, 30, 2, 4, 10, 11, 15, 16, 17, 18, 26, 1, 4, 5, 9, 18, 23, 26, 27, 30, 1, 3, 7, 8, 15, 20, 22, 28, 29, 1, 6, 11, 15, 16, 21, 22, 27, 30, 5, 6, 7, 13, 14, 17, 18, 19, 21];
rreq = [|12, 12, 11, 9, 8, 8, 6, 5, 5, 27, 27, 25, 23, 20, 20, 16, 16, 13, 16, 16, 15, 15, 14, 13, 12, 12, 11, 20, 19, 18, 16, 16, 16, 14, 14, 13, 9, 8, 8, 7, 7, 6, 6, 6, 5, 23, 23, 23, 23, 22, 22, 22, 22, 22, 16, 16, 16, 16, 16, 16, 16, 16, 16, 16, 14, 14, 12, 12, 10, 9, 8, 8, 29, 25, 22, 20, 17, 13, 8, 4, 1, 25, 25, 20, 18, 14, 14, 10, 6, 4, 19, 18, 16, 16, 15, 15, 13, 12, 12, 12, 11, 11, 10, 9, 8, 7, 7, 6, 21, 19, 17, 13, 11, 9, 8, 4, 1, 28, 26, 25, 22, 22, 21, 19, 17, 15, 29, 29, 29, 29, 29, 29, 29, 29, 29, 25, 25, 25, 25, 25, 25, 25, 25, 25, 28, 27, 25, 25, 24, 23, 22, 21, 21, 18, 16, 15, 13, 13, 11, 10, 9, 8, 27, 27, 25, 24, 24, 23, 22, 22, 21, 23, 22, 17, 14, 14, 10, 7, 3, 3, 26, 24, 23, 20, 20, 17, 15, 14, 11, 18, 15, 13, 11, 10, 9, 5, 4, 3, 8, 8, 8, 8, 7, 7, 7, 7, 7, 27, 26, 26, 26, 26, 26, 26, 26, 26, 15, 13, 13, 11, 9, 7, 7, 3, 3, 9, 8, 8, 8, 7, 7, 7, 7, 7, 21, 19, 17, 14, 12, 9, 9, 4, 2, 21, 20, 20, 19, 19, 18, 17, 17, 16, 26, 25, 24, 22, 17, 17, 15, 12, 11, 19, 17, 16, 13, 12, 8, 8, 6, 4, 28, 26, 26, 23, 23, 20, 20, 17, 16, 12, 12, 12, 11, 11, 11, 11, 10, 10, 28, 24, 24, 22, 19, 19, 16, 16, 13, 26, 23, 22, 20, 19, 18, 16, 13, 12, 19, 19, 17, 16, 13, 13, 12, 10, 8, 8, 7, 7, 7, 7, 7, 7, 7, 7, 9, 8, 8, 7, 6, 6, 5, 5, 4, 12, 11, 11, 11, 11, 11, 11, 11, 11, 8, 7, 6, 6, 5, 4, 4, 2, 2, 26, 25, 23, 17, 16, 13, 10, 6, 2, 15, 13, 12, 11, 11, 10, 8, 8, 6, 28, 25, 24, 20, 17, 14, 12, 12, 7, 26, 23, 17, 15, 13, 10, 6, 4, 3, 8, 7, 6, 6, 5, 3, 3, 1, 1, 27, 24, 24, 22, 20, 19, 18, 17, 16, 30, 28, 28, 28, 27, 27, 26, 25, 25, 9, 7, 7, 6, 5, 5, 4, 3, 3, 14, 14, 14, 14, 14, 14, 14, 14, 14, 17, 16, 13, 11, 10, 9, 5, 4, 3, 19, 18, 16, 15, 15, 14, 13, 11, 10
 |15, 14, 14, 14, 13, 13, 12, 12, 12, 20, 20, 19, 19, 18, 18, 17, 17, 16, 9, 8, 8, 8, 8, 7, 7, 7, 7, 28, 28, 28, 28, 28, 28, 28, 28, 28, 28, 25, 25, 21, 19, 17, 16, 14, 13, 29, 28, 28, 28, 26, 26, 26, 25, 24, 28, 27, 26, 25, 23, 20, 20, 19, 16, 24, 19, 18, 17, 14, 10, 8, 6, 4, 24, 24, 24, 24, 24, 24, 24, 24, 24, 13, 12, 12, 12, 11, 11, 11, 10, 10, 16, 14, 12, 10, 9, 8, 7, 5, 4, 6, 6, 6, 6, 6, 6, 6, 6, 6, 26, 26, 26, 26, 26, 26, 26, 26, 26, 9, 7, 7, 7, 6, 5, 5, 4, 4, 26, 25, 25, 25, 24, 24, 24, 23, 23, 15, 14, 12, 12, 9, 7, 7, 4, 2, 24, 23, 21, 19, 18, 17, 15, 13, 11, 27, 25, 22, 20, 18, 15, 15, 11, 10, 15, 13, 13, 13, 11, 11, 11, 10, 9, 22, 21, 21, 20, 19, 19, 19, 18, 18, 12, 10, 9, 8, 7, 4, 3, 3, 1, 24, 23, 19, 19, 15, 14, 12, 10, 7, 15, 14, 14, 13, 13, 13, 13, 12, 12, 21, 17, 15, 15, 11, 10, 8, 7, 5, 18, 17, 17, 17, 16, 16, 16, 16, 16, 21, 19, 18, 14, 12, 12, 8, 6, 6, 14, 12, 12, 10, 9, 6, 5, 4, 2, 21, 20, 20, 20, 18, 18, 18, 16, 16, 22, 21, 21, 21, 20, 20, 20, 20, 20, 18, 16, 13, 11, 10, 9, 7, 5, 4, 20, 18, 17, 15, 14, 13, 13, 11, 10, 9, 9, 9, 9, 9, 8, 8, 8, 8, 21, 19, 17, 15, 14, 13, 10, 8, 7, 23, 22, 22, 21, 21, 21, 20, 20, 20, 4, 3, 3, 3, 2, 2, 2, 2, 2, 27, 27, 27, 27, 27, 27, 27, 27, 27, 19, 15, 14, 13, 10, 10, 8, 5, 5, 25, 21, 21, 16, 15, 13, 9, 8, 4, 23, 22, 18, 16, 15, 14, 10, 10, 8, 25, 25, 24, 22, 22, 20, 19, 19, 17, 16, 16, 16, 16, 16, 16, 16, 16, 16, 16, 13, 11, 9, 8, 7, 4, 2, 2, 11, 10, 10, 10, 10, 9, 9, 9, 9, 14, 13, 12, 10, 9, 7, 5, 3, 2, 27, 27, 25, 21, 21, 17, 16, 14, 12, 17, 15, 13, 13, 12, 9, 9, 8, 7, 9, 8, 7, 7, 6, 5, 4, 3, 2, 23, 22, 22, 21, 21, 20, 19, 18, 18, 6, 6, 6, 5, 4, 4, 4, 3, 3, 24, 22, 18, 16, 14, 11, 10, 6, 5
 |4, 4, 3, 3, 2, 2, 2, 1, 1, 27, 25, 22, 20, 18, 13, 11, 8, 7, 13, 12, 12, 11, 10, 8, 7, 7, 6, 27, 24, 24, 21, 21, 19, 17, 15, 14, 27, 26, 26, 26, 25, 25, 25, 25, 25, 7, 7, 7, 7, 7, 7, 7, 7, 7, 25, 23, 23, 21, 20, 18, 18, 15, 14, 16, 16, 14, 13, 11, 10, 9, 7, 6, 9, 9, 9, 9, 9, 9, 9, 9, 9, 25, 25, 25, 24, 24, 24, 23, 23, 23, 23, 21, 20, 20, 18, 17, 16, 15, 15, 21, 20, 20, 20, 18, 18, 18, 16, 16, 10, 9, 9, 9, 8, 8, 8, 8, 8, 2, 2, 2, 2, 2, 1, 1, 1, 1, 8, 7, 7, 7, 7, 7, 7, 7, 7, 14, 12, 10, 10, 8, 7, 5, 3, 3, 12, 11, 11, 11, 11, 11, 11, 11, 11, 24, 24, 24, 24, 24, 24, 24, 24, 24, 14, 14, 14, 14, 14, 13, 13, 13, 13, 24, 22, 21, 17, 12, 9, 6, 5, 3, 9, 8, 6, 5, 5, 4, 4, 2, 2, 23, 23, 23, 23, 23, 23, 23, 23, 23, 28, 25, 20, 16, 13, 13, 8, 7, 1, 17, 17, 17, 17, 17, 16, 16, 16, 16, 5, 5, 4, 3, 3, 3, 2, 2, 1, 26, 25, 25, 25, 24, 24, 24, 24, 24, 24, 24, 24, 23, 22, 22, 21, 21, 21, 18, 16, 12, 12, 8, 7, 6, 3, 2, 24, 22, 20, 18, 15, 14, 11, 9, 9, 12, 10, 9, 8, 8, 7, 6, 5, 5, 7, 6, 6, 5, 5, 5, 4, 4, 3, 28, 24, 21, 17, 14, 11, 8, 4, 1, 21, 20, 18, 14, 11, 10, 9, 5, 4, 19, 19, 18, 18, 16, 16, 16, 15, 14, 26, 23, 21, 19, 19, 17, 16, 15, 12, 14, 14, 13, 11, 11, 9, 8, 7, 7, 9, 8, 7, 6, 6, 5, 4, 2, 2, 26, 26, 24, 20, 20, 18, 17, 13, 12, 5, 4, 4, 4, 3, 3, 3, 2, 2, 8, 7, 6, 5, 4, 4, 2, 2, 1, 22, 21, 21, 19, 19, 19, 18, 17, 16, 26, 23, 23, 22, 19, 18, 16, 16, 13, 13, 12, 12, 12, 12, 12, 12, 12, 12, 13, 12, 10, 10, 9, 9, 7, 6, 6, 9, 8, 8, 8, 6, 6, 5, 4, 4, 12, 10, 9, 9, 8, 5, 4, 3, 3, 8, 7, 7, 6, 6, 6, 6, 5, 5, 25, 23, 21, 19, 18, 18, 17, 15, 13, 22, 17, 16, 15, 12, 10, 6, 4, 3, 19, 18, 16, 15, 12, 9, 6, 4, 2
 |8, 7, 7, 7, 7, 7, 7, 7, 7, 14, 13, 13, 12, 11, 9, 8, 7, 7, 30, 28, 28, 28, 27, 27, 26, 26, 25, 12, 11, 9, 9, 8, 7, 6, 5, 5, 24, 23, 21, 21, 20, 19, 17, 16, 15, 28, 27, 26, 26, 25, 25, 24, 24, 23, 13, 12, 12, 10, 9, 9, 8, 7, 5, 27, 26, 26, 26, 26, 25, 25, 25, 25, 28, 25, 21, 17, 17, 11, 8, 7, 2, 30, 30, 30, 30, 30, 30, 30, 30, 30, 17, 16, 16, 16, 16, 16, 16, 16, 16, 21, 17, 17, 14, 13, 8, 7, 4, 3, 15, 14, 12, 11, 10, 8, 8, 7, 6, 12, 12, 11, 11, 11, 10, 10, 9, 9, 27, 26, 25, 24, 22, 22, 20, 19, 18, 10, 9, 9, 9, 9, 8, 8, 8, 8, 14, 11, 10, 10, 7, 5, 5, 3, 2, 26, 24, 22, 22, 21, 20, 18, 18, 16, 25, 21, 21, 18, 13, 13, 11, 8, 5, 29, 25, 23, 22, 19, 16, 12, 12, 8, 30, 25, 25, 23, 19, 16, 14, 11, 10, 8, 8, 8, 8, 7, 7, 7, 7, 7, 28, 25, 24, 21, 17, 15, 15, 12, 9, 10, 8, 8, 6, 6, 6, 4, 3, 3, 15, 15, 15, 15, 14, 14, 14, 13, 13, 30, 26, 21, 18, 16, 15, 10, 7, 4, 16, 14, 14, 11, 10, 10, 7, 7, 4, 27, 26, 26, 26, 24, 24, 24, 23, 22, 25, 23, 22, 20, 20, 17, 16, 14, 13, 1, 1, 1, 1, 1, 1, 1, 1, 1, 13, 12, 10, 10, 8, 7, 6, 5, 3, 26, 24, 24, 22, 22, 21, 20, 19, 19, 28, 26, 26, 22, 21, 20, 16, 14, 13, 2, 2, 2, 2, 2, 2, 2, 2, 2, 16, 13, 13, 12, 11, 9, 9, 8, 6, 24, 24, 23, 22, 22, 21, 21, 19, 19, 23, 21, 20, 20, 19, 17, 15, 14, 13, 14, 13, 11, 10, 8, 7, 6, 3, 2, 27, 25, 23, 22, 20, 16, 16, 13, 10, 18, 17, 13, 13, 11, 10, 8, 5, 4, 29, 29, 28, 27, 27, 27, 26, 25, 25, 17, 17, 16, 16, 15, 15, 14, 13, 13, 27, 26, 22, 18, 17, 11, 10, 8, 3, 30, 28, 28, 27, 26, 25, 25, 23, 23, 16, 15, 15, 15, 15, 15, 15, 15, 15, 22, 18, 15, 13, 11, 10, 8, 3, 1, 23, 18, 16, 16, 11, 9, 8, 4, 3, 29, 28, 28, 28, 28, 28, 28, 28, 28, 27, 25, 24, 23, 22, 20, 19, 18, 17, 25, 20, 19, 18, 16, 13, 12, 10, 7
 |26, 24, 24, 22, 21, 20, 19, 18, 18, 27, 24, 22, 19, 15, 12, 12, 7, 6, 21, 18, 17, 16, 14, 12, 10, 8, 8, 18, 17, 17, 17, 17, 17, 17, 17, 17, 19, 18, 17, 16, 16, 16, 15, 14, 14, 15, 14, 13, 12, 11, 11, 10, 10, 9, 15, 14, 13, 12, 11, 9, 7, 6, 6, 28, 26, 20, 17, 14, 13, 8, 6, 4, 25, 24, 24, 24, 24, 24, 24, 24, 24, 13, 12, 12, 11, 9, 9, 7, 7, 5, 29, 26, 25, 25, 24, 23, 21, 21, 20, 5, 4, 4, 3, 2, 2, 1, 1, 1, 26, 25, 23, 21, 18, 17, 13, 12, 11, 3, 3, 3, 3, 2, 2, 2, 1, 1, 25, 25, 25, 25, 25, 25, 25, 25, 25, 16, 16, 16, 16, 16, 16, 16, 16, 16, 28, 24, 20, 19, 16, 14, 9, 6, 5, 14, 11, 10, 8, 8, 6, 5, 3, 2, 24, 21, 20, 20, 17, 16, 15, 14, 13, 16, 15, 15, 14, 12, 10, 9, 8, 8, 30, 29, 28, 27, 26, 24, 24, 22, 22, 21, 20, 18, 15, 13, 13, 12, 8, 7, 20, 19, 19, 18, 16, 15, 14, 13, 13, 12, 12, 11, 10, 9, 9, 9, 8, 7, 5, 5, 5, 5, 5, 5, 5, 5, 5, 15, 13, 13, 10, 9, 9, 7, 4, 3, 11, 9, 9, 8, 8, 7, 7, 6, 6, 17, 17, 16, 15, 14, 14, 12, 12, 11, 27, 26, 26, 26, 26, 26, 26, 26, 26, 28, 28, 28, 28, 28, 28, 28, 28, 28, 26, 26, 26, 26, 26, 26, 26, 26, 26, 27, 24, 22, 19, 17, 17, 13, 12, 11, 23, 23, 22, 21, 20, 18, 17, 16, 16, 28, 24, 24, 22, 17, 17, 12, 9, 8, 14, 13, 11, 10, 8, 8, 7, 4, 4, 18, 17, 17, 16, 16, 15, 15, 14, 14, 28, 28, 27, 27, 25, 25, 24, 23, 23, 20, 19, 19, 17, 17, 15, 15, 14, 13, 17, 15, 15, 12, 11, 8, 6, 5, 3, 17, 16, 16, 16, 15, 15, 15, 15, 15, 24, 22, 19, 19, 14, 12, 10, 9, 8, 24, 21, 19, 15, 13, 12, 9, 3, 1, 26, 25, 24, 20, 16, 16, 12, 11, 9, 30, 29, 29, 28, 27, 27, 26, 26, 26, 16, 15, 15, 15, 15, 14, 14, 14, 14, 4, 3, 3, 3, 2, 2, 2, 2, 2, 14, 13, 13, 12, 12, 11, 11, 9, 9, 18, 17, 17, 17, 17, 17, 17, 17, 17, 22, 21, 21, 19, 19, 18, 18, 17, 16, 20, 18, 17, 16, 13, 12, 11, 9, 7
 |12, 11, 11, 11, 10, 10, 10, 10, 10, 26, 22, 18, 16, 13, 13, 8, 8, 4, 27, 25, 25, 24, 22, 21, 20, 18, 17, 24, 24, 24, 24, 24, 24, 24, 24, 24, 25, 24, 23, 23, 22, 21, 21, 20, 20, 18, 17, 16, 15, 14, 13, 11, 11, 10, 20, 20, 20, 20, 20, 20, 20, 20, 20, 27, 25, 21, 21, 17, 15, 12, 10, 9, 26, 23, 22, 17, 15, 11, 9, 6, 4, 29, 28, 24, 24, 21, 20, 18, 17, 15, 26, 24, 19, 16, 15, 12, 8, 4, 4, 26, 25, 21, 19, 18, 15, 13, 9, 6, 19, 17, 16, 14, 13, 12, 10, 7, 6, 23, 23, 23, 23, 23, 23, 23, 23, 23, 29, 25, 23, 20, 19, 18, 16, 11, 9, 19, 19, 18, 18, 17, 16, 15, 14, 14, 16, 16, 16, 16, 16, 16, 16, 16, 16, 12, 10, 10, 8, 7, 5, 4, 3, 2, 22, 22, 22, 22, 22, 21, 21, 21, 21, 30, 27, 25, 22, 20, 18, 15, 14, 11, 18, 16, 16, 13, 12, 11, 11, 9, 8, 14, 13, 12, 11, 11, 11, 10, 9, 9, 28, 23, 21, 19, 14, 12, 7, 6, 3, 23, 20, 19, 18, 17, 15, 15, 13, 12, 18, 15, 14, 14, 13, 11, 9, 8, 7, 26, 25, 25, 23, 22, 21, 20, 20, 19, 21, 21, 21, 21, 21, 20, 20, 20, 20, 17, 15, 15, 13, 10, 9, 7, 6, 5, 18, 16, 15, 14, 12, 9, 5, 5, 3, 14, 14, 13, 12, 11, 11, 10, 10, 9, 18, 16, 15, 15, 14, 11, 11, 9, 8, 25, 22, 19, 18, 16, 15, 12, 9, 7, 10, 10, 9, 8, 7, 7, 5, 4, 4, 26, 26, 25, 24, 22, 21, 20, 19, 18, 23, 22, 20, 17, 16, 12, 12, 10, 6, 19, 18, 18, 16, 16, 16, 15, 13, 13, 17, 16, 14, 13, 10, 9, 7, 6, 3, 20, 20, 20, 20, 20, 20, 20, 20, 20, 7, 7, 7, 7, 7, 7, 7, 7, 7, 10, 9, 9, 7, 7, 4, 3, 3, 2, 29, 27, 23, 22, 21, 18, 15, 14, 12, 30, 26, 25, 24, 23, 21, 20, 17, 16, 24, 23, 22, 20, 19, 17, 17, 16, 14, 17, 16, 14, 14, 12, 10, 8, 7, 6, 30, 27, 26, 25, 25, 23, 23, 21, 20, 28, 26, 26, 25, 25, 24, 24, 24, 23, 30, 28, 26, 26, 25, 24, 22, 22, 20, 17, 17, 17, 17, 16, 16, 16, 15, 15, 18, 16, 15, 14, 14, 13, 13, 12, 11, 29, 29, 28, 28, 27, 27, 26, 26, 26
 |27, 27, 26, 26, 25, 25, 25, 24, 24, 17, 16, 16, 15, 15, 15, 14, 13, 13, 17, 15, 14, 11, 9, 7, 5, 5, 2, 26, 24, 23, 19, 19, 16, 13, 12, 10, 23, 19, 19, 18, 15, 13, 11, 10, 8, 9, 8, 8, 7, 7, 7, 7, 6, 6, 20, 18, 17, 16, 16, 15, 14, 13, 13, 10, 10, 9, 9, 8, 7, 7, 5, 5, 15, 14, 14, 13, 13, 13, 12, 12, 12, 26, 25, 24, 22, 22, 22, 21, 20, 19, 25, 24, 23, 23, 22, 22, 21, 21, 20, 15, 14, 14, 14, 13, 13, 13, 13, 13, 21, 21, 20, 19, 18, 18, 16, 16, 15, 14, 13, 12, 11, 10, 9, 9, 7, 7, 24, 20, 18, 17, 14, 12, 7, 5, 5, 29, 27, 26, 23, 22, 21, 18, 18, 17, 6, 6, 6, 6, 5, 5, 5, 4, 4, 20, 19, 16, 16, 13, 10, 9, 4, 3, 9, 8, 7, 6, 6, 6, 5, 4, 4, 30, 29, 27, 27, 25, 25, 23, 23, 22, 26, 22, 20, 18, 17, 16, 13, 11, 10, 7, 6, 5, 5, 5, 4, 4, 3, 3, 25, 24, 24, 23, 22, 20, 19, 18, 18, 24, 23, 20, 19, 17, 13, 11, 8, 6, 27, 27, 24, 23, 19, 18, 15, 15, 12, 25, 24, 21, 20, 15, 13, 10, 8, 7, 16, 16, 16, 16, 16, 16, 16, 16, 16, 18, 17, 16, 16, 16, 15, 14, 14, 14, 13, 11, 11, 9, 9, 7, 6, 6, 5, 11, 10, 10, 10, 9, 8, 7, 7, 6, 16, 13, 12, 10, 8, 6, 6, 4, 3, 28, 28, 25, 25, 22, 22, 20, 19, 17, 15, 13, 12, 10, 10, 8, 7, 3, 3, 25, 24, 21, 18, 14, 14, 9, 8, 6, 9, 9, 7, 6, 5, 5, 4, 3, 1, 20, 19, 18, 17, 16, 16, 15, 14, 14, 25, 22, 22, 21, 18, 18, 16, 15, 15, 12, 10, 8, 8, 6, 5, 3, 2, 1, 17, 17, 16, 14, 14, 14, 13, 11, 11, 19, 19, 17, 15, 14, 13, 12, 9, 8, 18, 16, 16, 14, 11, 9, 8, 4, 3, 17, 16, 15, 13, 12, 12, 11, 9, 8, 15, 15, 13, 12, 10, 10, 7, 6, 5, 27, 26, 26, 25, 25, 25, 24, 24, 24, 18, 17, 16, 16, 16, 15, 15, 14, 14, 13, 13, 12, 10, 9, 7, 6, 4, 2, 25, 23, 22, 21, 21, 19, 18, 18, 17, 17, 16, 14, 14, 13, 11, 11, 10, 9, 27, 26, 26, 26, 25, 25, 25, 25, 25, 12, 10, 10, 8, 8, 8, 6, 6, 5
 |18, 17, 17, 17, 16, 16, 16, 15, 14, 3, 3, 3, 2, 2, 2, 2, 1, 1, 18, 16, 13, 12, 10, 8, 7, 5, 3, 27, 26, 25, 24, 24, 24, 23, 22, 21, 30, 30, 30, 30, 30, 30, 30, 30, 30, 23, 21, 21, 19, 16, 15, 15, 13, 12, 18, 17, 17, 16, 15, 15, 14, 14, 14, 19, 17, 17, 17, 16, 15, 15, 14, 13, 20, 20, 19, 19, 17, 17, 16, 15, 15, 9, 7, 7, 6, 5, 5, 5, 4, 3, 25, 21, 21, 19, 16, 14, 12, 10, 10, 12, 12, 11, 10, 10, 9, 8, 7, 7, 28, 27, 27, 27, 26, 26, 25, 25, 25, 23, 21, 20, 20, 19, 17, 16, 14, 14, 21, 21, 21, 21, 21, 21, 21, 21, 21, 29, 28, 28, 28, 28, 28, 28, 28, 28, 16, 15, 14, 10, 9, 8, 6, 5, 2, 17, 16, 14, 13, 10, 9, 7, 7, 6, 21, 19, 16, 14, 14, 11, 10, 8, 8, 29, 28, 28, 28, 28, 28, 28, 28, 28, 25, 23, 20, 19, 17, 12, 11, 8, 7, 27, 26, 23, 21, 20, 18, 14, 14, 12, 18, 17, 16, 16, 15, 15, 14, 14, 14, 26, 25, 24, 24, 23, 22, 21, 20, 20, 27, 26, 25, 23, 23, 22, 22, 21, 20, 23, 21, 21, 20, 19, 18, 16, 15, 15, 24, 23, 22, 20, 18, 18, 16, 15, 13, 27, 25, 22, 20, 19, 14, 14, 9, 7, 2, 2, 2, 2, 2, 1, 1, 1, 1, 22, 21, 21, 21, 20, 20, 20, 20, 20, 27, 25, 23, 20, 20, 18, 16, 14, 10, 30, 25, 22, 20, 17, 14, 10, 6, 3, 18, 18, 16, 15, 13, 13, 10, 9, 9, 23, 23, 20, 19, 17, 15, 11, 11, 7, 4, 4, 4, 4, 3, 3, 3, 2, 2, 29, 27, 26, 26, 25, 24, 24, 22, 21, 9, 8, 7, 7, 6, 6, 5, 5, 4, 16, 15, 14, 12, 12, 10, 9, 9, 8, 20, 18, 15, 15, 13, 11, 10, 9, 7, 10, 9, 8, 7, 7, 6, 6, 5, 4, 28, 27, 26, 26, 24, 24, 24, 22, 22, 26, 24, 24, 24, 23, 22, 22, 20, 20, 23, 22, 20, 20, 18, 17, 16, 15, 15, 8, 8, 8, 8, 8, 8, 8, 8, 8, 17, 16, 15, 14, 13, 13, 11, 10, 10, 4, 4, 4, 3, 3, 3, 2, 2, 2, 23, 22, 20, 16, 15, 12, 7, 5, 5, 19, 19, 19, 19, 19, 19, 19, 19, 19, 19, 16, 15, 13, 12, 11, 9, 7, 6, 27, 27, 27, 26, 26, 25, 25, 24, 24|];